7 124
3 123
54 99
7 20
60 49
40 52
83 1
20 184
26 119
57 84
42 15
2 12
92 14
2 98
2 142
18 82
13 170
12 171
27 7
8 162
15 15
10 41
97 8
5 188
19 185
15 156
82 66
24 194
45 1
22 56
94 8
1 116
13 115
49 22
23 197
2 121
19 12
45 30
63 81
7 72
19 78
47 23
37 43
14 176
6 1
82 7
100 35
53 4
20 85
15 166
68 34
37 116
28 112
50 26
25 81
9 16
58 22
8 171
5 45
33 103
18 31
5 153
5 29
3 8
11 67
17 130
69 57
6 178
91 40
35 82
6 65
89 45
7 85
5 130
40 42
53 41
66 2
27 20
5 57
74 19
75 11
14 144
45 52
31 86
41 70
50 45
7 16
67 47
17 25
33 15
72 65
29 72
29 103
59 39
43 36
89 38
21 75
86 63
15 116
1 74
